NAME : tsp40_13.213.tour
COMMENT : Length = 213
COMMENT : Found by LKH [Keld Helsgaun]
TYPE : TOUR
DIMENSION : 40
TOUR_SECTION
1
10
23
7
5
18
33
8
30
25
20
36
34
16
29
28
37
13
40
15
2
3
9
27
12
22
17
31
14
32
26
6
11
24
19
39
38
4
21
35
-1
EOF
